
******************************************************************************
This program contains Ipopt, a library for large-scale nonlinear optimization.
 Ipopt is released as open source code under the Eclipse Public License (EPL).
         For more information visit http://projects.coin-or.org/Ipopt

This version of Ipopt was compiled from source code available at
    https://github.com/IDAES/Ipopt as part of the Institute for the Design of
    Advanced Energy Systems Process Systems Engineering Framework (IDAES PSE
    Framework) Copyright (c) 2018-2019. See https://github.com/IDAES/idaes-pse.

This version of Ipopt was compiled using HSL, a collection of Fortran codes
    for large-scale scientific computation.  All technical papers, sales and
    publicity material resulting from use of the HSL codes within IPOPT must
    contain the following acknowledgement:
        HSL, a collection of Fortran codes for large-scale scientific
        computation. See http://www.hsl.rl.ac.uk.
******************************************************************************

This is Ipopt version 3.13.2, running with linear solver ma27.

Number of nonzeros in equality constraint Jacobian...:      928
Number of nonzeros in inequality constraint Jacobian.:        0
Number of nonzeros in Lagrangian Hessian.............:      806

Total number of variables............................:      403
                     variables with only lower bounds:      124
                variables with lower and upper bounds:      217
                     variables with only upper bounds:        0
Total number of equality constraints.................:      402
Total number of inequality constraints...............:        0
        inequality constraints with only lower bounds:        0
   inequality constraints with lower and upper bounds:        0
        inequality constraints with only upper bounds:        0

iter    objective    inf_pr   inf_du lg(mu)  ||d||  lg(rg) alpha_du alpha_pr  ls
   0  0.0000000e+00 1.12e+00 6.66e-16  -1.0 0.00e+00    -  0.00e+00 0.00e+00   0
   1  9.4053528e-01 7.71e-01 2.30e+04  -1.0 1.57e+05    -  4.69e-01 3.75e-01h  1
   2  9.7077980e-01 7.64e-01 2.30e+04  -1.0 1.24e+05    -  5.61e-01 9.12e-03h  1
   3  6.2044075e+00 3.57e-01 2.13e+04  -1.0 1.48e+05    -  5.75e-01 6.55e-01h  1
   4  1.2688864e+01 5.42e-02 6.90e+03  -1.0 6.14e+04    -  8.62e-01 9.90e-01h  1
   5  1.3017240e+01 1.94e-03 8.17e+01  -1.0 2.53e+03    -  9.87e-01 9.90e-01h  1
   6  1.3029539e+01 2.13e-05 1.15e+03  -1.0 2.03e+02    -  9.88e-01 9.90e-01h  1
   7  1.3050383e+01 4.92e-05 1.04e+07  -1.0 1.43e+04    -  2.54e-01 3.09e-02f  6
   8  1.3185194e+01 6.15e-05 1.06e+05  -1.0 2.90e+03    -  9.90e-01 9.90e-01H  1
   9  1.3314073e+01 2.25e-05 1.50e+07  -1.0 2.72e+03    -  9.93e-01 9.90e-01H  1
iter    objective    inf_pr   inf_du lg(mu)  ||d||  lg(rg) alpha_du alpha_pr  ls
  10  1.3279924e+01 8.27e-07 4.83e+09  -1.0 7.18e+02    -  1.00e+00 9.90e-01H  1
In iteration 10, 31 Slacks too small, adjusting variable bounds
  11  1.3276308e+01 3.50e-07 4.83e+11  -1.0 7.62e+01    -  1.00e+00 9.90e-01h  1
  12  1.3276239e+01 9.84e-11 5.07e-03  -1.0 1.46e+00    -  1.00e+00 1.00e+00h  1
  13  1.3274244e+01 1.09e-07 4.83e+11  -9.0 8.61e+03    -  9.84e-01 4.83e-03f  8
  14  1.3272264e+01 2.17e-07 4.87e+11  -9.0 6.53e+03    -  9.89e-01 6.33e-03f  8
  15  1.3270301e+01 3.24e-07 4.84e+11  -9.0 5.80e+03    -  9.94e-01 7.06e-03f  8
  16  1.3269327e+01 3.49e-07 4.82e+11  -9.0 5.50e+03    -  1.00e+00 3.69e-03f  9
  17  1.3269084e+01 3.51e-07 4.82e+11  -9.0 5.36e+03    -  1.00e+00 9.45e-04f 11
  18  1.3023871e+01 3.65e-03 9.29e+09  -9.0 5.28e+03    -  1.00e+00 9.81e-01f  1
  19  1.3020942e+01 3.06e-06 2.10e-02  -9.0 5.20e+01    -  1.00e+00 1.00e+00h  1
iter    objective    inf_pr   inf_du lg(mu)  ||d||  lg(rg) alpha_du alpha_pr  ls
  20  1.3020942e+01 1.69e-11 8.48e-08  -9.0 1.88e-03    -  1.00e+00 1.00e+00h  1
  21  1.3020942e+01 4.55e-12 9.09e-13  -9.0 8.32e-07    -  1.00e+00 1.00e+00h  1

Number of Iterations....: 21

                                   (scaled)                 (unscaled)
Objective...............:   1.3020942110366185e+01    1.3020942110366185e+01
Dual infeasibility......:   9.0949470177292824e-13    9.0949470177292824e-13
Constraint violation....:   4.5461412412350910e-12    4.5461412412350910e-12
Complementarity.........:   9.0909091794499961e-10    9.0909091794499961e-10
Overall NLP error.......:   3.6885536606986397e-10    9.0909091794499961e-10


Number of objective function evaluations             = 91
Number of objective gradient evaluations             = 22
Number of equality constraint evaluations            = 91
Number of inequality constraint evaluations          = 0
Number of equality constraint Jacobian evaluations   = 22
Number of inequality constraint Jacobian evaluations = 0
Number of Lagrangian Hessian evaluations             = 21
Total CPU secs in IPOPT (w/o function evaluations)   =      0.043
Total CPU secs in NLP function evaluations           =      0.742

EXIT: Optimal Solution Found.
